8
-1 92 11 82 89 14 10 91 
75 -1 23 64 33 22 59 81 
60 82 -1 52 96 95 29 26 
43 13 90 -1 56 67 32 46 
23 78 44 48 -1 44 18 85 
74 15 77 7 94 -1 49 93 
81 81 23 46 12 25 -1 100 
29 70 39 69 40 18 85 -1 
